c 3 - XORSAT
p cnf 20 80
-1 -5 -10 0
-1 5 10 0
1 -5 10 0
1 5 -10 0
-4 -15 -16 0
-4 15 16 0
4 -15 16 0
4 15 -16 0
6 16 17 0
-6 -16 17 0
-6 16 -17 0
6 -16 -17 0
-3 -8 -12 0
-3 8 12 0
3 -8 12 0
3 8 -12 0
11 14 12 0
-11 -14 12 0
-11 14 -12 0
11 -14 -12 0
8 13 15 0
-8 -13 15 0
-8 13 -15 0
8 -13 -15 0
-15 -18 -20 0
-15 18 20 0
15 -18 20 0
15 18 -20 0
5 7 9 0
-5 -7 9 0
-5 7 -9 0
5 -7 -9 0
-6 -10 -1 0
-6 10 1 0
6 -10 1 0
6 10 -1 0
-10 -12 -16 0
-10 12 16 0
10 -12 16 0
10 12 -16 0
8 17 19 0
-8 -17 19 0
-8 17 -19 0
8 -17 -19 0
4 9 17 0
-4 -9 17 0
-4 9 -17 0
4 -9 -17 0
-1 -9 -11 0
-1 9 11 0
1 -9 11 0
1 9 -11 0
-7 -14 -19 0
-7 14 19 0
7 -14 19 0
7 14 -19 0
2 3 5 0
-2 -3 5 0
-2 3 -5 0
2 -3 -5 0
11 20 19 0
-11 -20 19 0
-11 20 -19 0
11 -20 -19 0
-2 -18 -20 0
-2 18 20 0
2 -18 20 0
2 18 -20 0
-2 -7 -13 0
-2 7 13 0
2 -7 13 0
2 7 -13 0
4 14 18 0
-4 -14 18 0
-4 14 -18 0
4 -14 -18 0
-3 -6 -13 0
-3 6 13 0
3 -6 13 0
3 6 -13 0
